StudentsNr = 10;
InstructorsNr = 16;
DaysNr = 2;
SlotsPerDay = 15;
AvailabilitySlotsLenght = 5;
RoomNr = 2;
ProgrammNr = 1;
DegreeNr = 1;
RolesNr = 1;
CoursesNr = 3;
InstructorsProgramm = [{1}, {1}, {1}, {1}, {1}, {1}, {1}, {1}, {1}, {1}, {1}, {1}, {1}, {1}, {1}, {1}];
InstructorRolesPerProgramm = [|{1, 3, 4, 5, 6, 7, 8, 12, 13, 14, 15}|];
InstructorsAvailability = [|0, 1, 1, 0, 1, 0, |0, 1, 0, 0, 1, 1, |0, 1, 1, 0, 0, 0, |1, 1, 0, 0, 0, 1, |1, 1, 0, 1, 1, 0, |1, 1, 0, 0, 0, 1, |1, 1, 1, 1, 1, 1, |0, 0, 1, 1, 1, 1, |1, 1, 0, 1, 1, 0, |0, 1, 0, 1, 1, 1, |1, 1, 1, 1, 1, 1, |1, 1, 1, 1, 1, 0, |0, 1, 1, 1, 1, 1, |0, 1, 1, 1, 1, 1, |0, 1, 1, 1, 0, 0, |1, 1, 0, 1, 1, 1|];
StudentsProgramm = [1, 1, 1, 1, 1, 1, 1, 1, 1, 1];
StudentsDegree = [1, 1, 1, 1, 1, 1, 1, 1, 1, 1];
StudentsSupervisorId = [7, 15, 10, 12, 16, 10, 10, 14, 10, 9];
StudentsCourseIds = [{2}, {1}, {3}, {1}, {3}, {1}, {2}, {1}, {1}, {2}];
StudentsAvailability = [|1, 1, 1, 1, 1, 0, |0, 0, 0, 1, 1, 1, |1, 1, 1, 1, 1, 1, |0, 1, 1, 1, 1, 1, |0, 1, 1, 1, 1, 1, |1, 1, 1, 1, 1, 1, |1, 1, 1, 1, 0, 0, |1, 1, 1, 1, 0, 1, |1, 1, 1, 1, 1, 0, |0, 0, 0, 1, 1, 0|];
TheoryticalMinCard = [0, 0, 1, 0, 1, 1, 0, 0, 1, 0];
CoursesInstructorIds = [{4}, {1, 2, 3, 5, 6, 9, 10, 12, 13, 14, 15}, {1, 2, 5, 6, 8, 13, 14, 15}];
RolesDemands = [1];
RolesContinuity = [];
ExamLen = [1, 1, 1, 1, 1, 1, 1, 1, 1, 1];
LunchTsMinLen = 1;
LunchStarts = [3..8, 18..24];
SupervisorAvailable = 5;
OptimalLunchLenght = [1, 1];
OptimalStartTs = [1, 0];
OptimalFinishTs = [0, 15];
MinimizeRooms = 200;
RolesSoftContinuity = [|1|0|];
SameDegreeInRoom = 20;
Mergeability = 1;
